unsat
(:binary-propagations  19
 :conflicts            1
 :final-checks         1
 :max-generation       1
 :max-memory           22.98
 :memory               20.84
 :mk-bool-var          300
 :mk-clause            83
 :mk-clause-binary     369
 :num-allocs           5199916
 :num-checks           1
 :propagations         19
 :quant-instantiations 60
 :restarts             1
 :rlimit-count         66945
 :time                 0.02)
